x,y,u_x,u_y,strain_xx,strain_yy,strain_xy,stress_xx,stress_yy,stress_xy
1e-07,1e-07,0.0,0.0,1.575718105982714e-07,0.0,6.990589134229658e-09,1.5757181059827137e-05,0.0,3.495294567114828e-07
1e-07,0.20000008,0.0,0.0,0.0,0.0,0.0,0.0,0.0,0.0
1e-07,0.40000006,0.0,0.0,0.0,0.0,0.0,0.0,0.0,0.0
1e-07,0.60000004,0.0,0.0,0.0,0.0,0.0,0.0,0.0,0.0
1e-07,0.8000000199999999,0.0,0.0,0.0,0.0,0.0,0.0,0.0,0.0
1e-07,0.9999999999999999,0.0,0.0,0.0,0.0,0.0,0.0,0.0,0.0
1e-07,1.19999998,0.0,0.0,0.0,0.0,0.0,0.0,0.0,0.0
1e-07,1.39999996,0.0,0.0,0.0,0.0,0.0,0.0,0.0,0.0
1e-07,1.59999994,0.0,0.0,0.0,0.0,0.0,0.0,0.0,0.0
1e-07,1.79999992,0.0,0.0,0.0,0.0,0.0,0.0,0.0,0.0
1e-07,1.9999999,0.0,0.0,1.5708477037543602e-07,0.0,-7.019390507530064e-09,1.57084770375436e-05,0.0,-3.509695253765032e-07
0.20000008,1e-07,0.04327601341227403,0.002368875574620139,0.09587037683302235,0.0004809305643221752,-0.0329127970497956,9.587037683302235,0.04809305643221753,-1.6456398524897804
0.20000008,0.20000008,0.031119909070155653,0.002943113530536586,0.11715588574805164,0.001954620204623858,-0.044268023584256785,11.715588574805162,0.19546202046238567,-2.213401179212838
0.20000008,0.40000006,0.024173221471149597,0.002525936153370994,0.11294142051928883,-0.001669716509519124,-0.02528989998360437,11.294142051928885,-0.1669716509519124,-1.264494999180218
0.20000008,0.60000004,0.021532973072621656,0.0014813270477286864,0.10769798195204942,-0.004779796668622243,-0.007056113817143583,10.769798195204942,-0.4779796668622243,-0.3528056908571795
0.20000008,0.8000000199999999,0.020936219016728947,0.0005777156905049365,0.1049133873351712,-0.0034344030643650137,0.0009060027691290583,10.491338733517122,-0.3434403064365013,0.04530013845645235
0.20000008,0.9999999999999999,0.020894201333468504,3.507731228710396e-06,0.10417683255213799,-0.002004944048733629,1.8258899109638982e-05,10.417683255213799,-0.20049440487336298,0.0009129449554855515
0.20000008,1.19999998,0.020934664855084453,-0.0005704233702452479,0.1049019815574338,-0.0034352238442800368,-0.0008723534755474437,10.49019815574338,-0.3435223844280036,-0.043617673777371364
0.20000008,1.39999996,0.021528426022241556,-0.0014739784640144765,0.1076719611077388,-0.00478563899837919,0.00705744748147959,10.767196110773883,-0.4785638998379191,0.3528723740739784
0.20000008,1.59999994,0.02416032109026221,-0.0025213691170823814,0.11289194047540599,-0.001694893101880522,0.0252186479431568,11.289194047540597,-0.1694893101880523,1.2609323971578394
0.20000008,1.79999992,0.031084689533948048,-0.002945666111439627,0.11707340617608111,0.0019314957942582766,0.04412970389563584,11.707340617608109,0.1931495794258276,2.2064851947817914
0.20000008,1.9999999,0.04319428099164011,-0.002376059340683361,0.09583129607575924,0.0004922708652392957,0.032768362842773055,9.583129607575923,0.04922708652392953,1.6384181421386528
0.40000006,1e-07,0.05489022461578302,0.005336818531237733,0.07159677684430012,-0.000748058346600286,-0.01049152585050447,7.159677684430013,-0.07480583466002852,-0.5245762925252235
0.40000006,0.20000008,0.05072785897171565,0.0048455150782945626,0.09566511869665971,-0.004701103352484924,-0.021654809549376354,9.566511869665971,-0.47011033524849233,-1.082740477468817
0.40000006,0.40000006,0.04611473792469228,0.0035445249601606748,0.10670748639194816,-0.00694037524663023,-0.01697763166925565,10.670748639194814,-0.6940375246630228,-0.8488815834627809
0.40000006,0.60000004,0.04349648598541976,0.0021522150866422674,0.10757116754175768,-0.0068769782359981374,-0.008394734434022165,10.75711675417577,-0.6876978235998138,-0.41973672170110793
0.40000006,0.8000000199999999,0.04243618578147099,0.0009767233176782427,0.10603266905688169,-0.005474490593263082,-0.002275842780052243,10.60326690568817,-0.5474490593263084,-0.1137921390026063
0.40000006,0.9999999999999999,0.04218222723790637,7.864654198634393e-06,0.10527483128187279,-0.004565120486742006,1.937463901315866e-05,10.527483128187278,-0.4565120486742006,0.0009687319506663497
0.40000006,1.19999998,0.042431976897691695,-0.0009609039181162412,0.10602166501205613,-0.005475640521020569,0.0023074213472885686,10.602166501205613,-0.5475640521020569,0.11537106736442579
0.40000006,1.39999996,0.04348628097858942,-0.002136181403066695,0.10754705223517264,-0.006875514188234978,0.008400378932328879,10.754705223517263,-0.687551418823498,0.4200189466164456
0.40000006,1.59999994,0.04609356931581934,-0.003528045880221957,0.10667194484978144,-0.006936157189496825,0.016947097072043327,10.667194484978141,-0.6936157189496824,0.8473548536021662
0.40000006,1.79999992,0.05068671830400642,-0.0048278122852814685,0.09564578782191949,-0.004697603808068932,0.0216080926307273,9.564578782191948,-0.46976038080689314,1.0804046315363647
0.40000006,1.9999999,0.05482376187067856,-0.0053183166679515205,0.07165554388746982,-0.0007535100756878566,0.010453820376025613,7.1655543887469815,-0.07535100756878568,0.5226910188012807
0.60000004,1e-07,0.07010761701111135,0.004869248510008514,0.08115642142853537,-0.000766242964769129,-0.00531623063431326,8.115642142853552,-0.0766242964769129,-0.2658115317156628
0.60000004,0.20000008,0.06909873250025429,0.004574731840662639,0.09240132279349085,-0.0028662615640038308,-0.011964109125374484,9.240132279349076,-0.2866261564003831,-0.598205456268724
0.60000004,0.40000006,0.06677732050361834,0.0036492416750413953,0.10254543011571988,-0.0053452476186219055,-0.012475933380183178,10.254543011571991,-0.5345247618621904,-0.6237966690091584
0.60000004,0.60000004,0.06484964048343937,0.0023999145508899465,0.10630257656262061,-0.006389328260993528,-0.00858000759796908,10.630257656262067,-0.6389328260993532,-0.42900037989844947
0.60000004,0.8000000199999999,0.06379133273435104,0.0011612718704981317,0.10652378416806149,-0.006105041818243644,-0.00398282512421776,10.652378416806153,-0.6105041818243645,-0.19914125621089357
0.60000004,0.9999999999999999,0.06347307120455369,1.3008895905707697e-05,0.10625643598143059,-0.0056817656899217,1.964429629233778e-05,10.625643598143062,-0.5681765689921697,0.0009822148146027701
0.60000004,1.19999998,0.06378496233146075,-0.0011349441414605186,0.10651434120484653,-0.0061011890862453485,0.004010969076249494,10.651434120484657,-0.6101189086245346,0.20054845381246256
0.60000004,1.39999996,0.06483519059715889,-0.002372560262120381,0.10628344625856553,-0.006380308765420337,0.008583930916554674,10.628344625856569,-0.6380308765420333,0.42919654582773403
0.60000004,1.59999994,0.06675130995118671,-0.003620068069650299,0.10252464914836444,-0.005335883345457785,0.012461302897225246,10.252464914836457,-0.5335883345457785,0.6230651448612627
0.60000004,1.79999992,0.06905739177736507,-0.004543529355107387,0.09240190347487064,-0.0028622707456049824,0.011948860045689076,9.240190347487061,-0.2862270745604983,0.5974430022844539
0.60000004,1.9999999,0.07005113150496048,-0.004837237275861362,0.0811951867294432,-0.0007675935715427119,0.0053057950990144,8.119518672944315,-0.07675935715427118,0.26528975495071994
0.8000000199999999,1e-07,0.08771993152595534,0.0037577867530467278,0.09145075195696022,-0.000567498502874452,-0.003694605916113492,9.14507519569603,-0.056749850287445176,-0.18473029580567413
0.8000000199999999,0.20000008,0.08777844349215654,0.003599550986633599,0.0953004155707284,-0.0015564254155948465,-0.007678131671287178,9.530041557072837,-0.1556425415594846,-0.383906583564359
0.8000000199999999,0.40000006,0.08681038595655559,0.0030567733557580927,0.1008824428217645,-0.003265588886577336,-0.009288370844998785,10.088244282176452,-0.32655888865773364,-0.4644185422499397
0.8000000199999999,0.60000004,0.08565453118666948,0.002161986002909498,0.10484385964921619,-0.0046937457091590805,-0.007833259341508627,10.484385964921604,-0.4693745709159078,-0.39166296707542864
0.8000000199999999,0.8000000199999999,0.0848533086056571,0.0011068725671217123,0.10657734249721695,-0.005470034672428791,-0.004521804263184429,10.65773424972171,-0.5470034672428793,-0.2260902131592171
0.8000000199999999,0.9999999999999999,0.08457623560516951,1.8554978520212556e-05,0.10697761314719843,-0.005642849088301822,1.6765516042299353e-05,10.697761314719838,-0.5642849088301822,0.0008382758021284187
0.8000000199999999,1.19999998,0.08484533636873023,-0.0010693633650759335,0.10657051224736183,-0.005463251954642475,0.004542420115019332,10.657051224736218,-0.5463251954642476,0.22712100575096775
0.8000000199999999,1.39999996,0.08563734939426247,-0.0021233449015553014,0.10483232754501735,-0.004685203927781201,0.007833904488851184,10.483232754501747,-0.46852039277811997,0.3916952244425594
0.8000000199999999,1.59999994,0.08678211021052434,-0.0030165805426689693,0.10087374916028696,-0.0032599889226928363,0.009279893240344839,10.087374916028722,-0.3259988922692836,0.463994662017241
0.8000000199999999,1.79999992,0.08773787523739154,-0.0035580637303567596,0.09530422936618907,-0.0015539454962350918,0.007670105213957282,9.530422936618894,-0.15539454962350918,0.38350526069786484
0.8000000199999999,1.9999999,0.08766790311799828,-0.0037158296609725193,0.09146829420385151,-0.0005668547199362492,0.003687234351093495,9.146829420385155,-0.0566854719936249,0.18436171755467542
0.9999999999999999,1e-07,0.10659424260419531,0.0026928745520040055,0.0977245788272429,-0.0003530068248283941,-0.002004049829029325,9.772457882724279,-0.03530068248283941,-0.10020249145146581
0.9999999999999999,0.20000008,0.10696189723722509,0.00260246288950689,0.09858265913084414,-0.0008883694311356079,-0.004527762177274653,9.858265913084397,-0.08883694311356079,-0.22638810886373253
0.9999999999999999,0.40000006,0.10665847197465021,0.0022837447699315455,0.10080370254944164,-0.0020219811965099216,-0.006086229741449361,10.080370254944189,-0.20219811965099216,-0.3043114870724672
0.9999999999999999,0.60000004,0.10607439603999125,0.0016908904909383566,0.10334488265952868,-0.003218046224259477,-0.005785373806150012,10.334488265952828,-0.32180462242594754,-0.2892686903074978
0.9999999999999999,0.8000000199999999,0.10558253233307778,0.000902685234663517,0.10522694084219601,-0.0042727140198691345,-0.003728180690345817,10.522694084219603,-0.4272714019869135,-0.18640903451729943
0.9999999999999999,0.9999999999999999,0.10539374824090789,2.408851683779903e-05,0.10593051584758834,-0.004733894906204921,1.017063141318185e-05,10.593051584758825,-0.4733894906204922,0.0005085315706580412
0.9999999999999999,1.19999998,0.10557356816955428,-0.000854190055501487,0.10522344343533653,-0.004266586591931004,0.0037389335362144342,10.522344343533648,-0.4266586591931004,0.18694667681070704
0.9999999999999999,1.39999996,0.10605575934053461,-0.0016415794378223155,0.10334021842917117,-0.0032125128254587906,0.005784203301688327,10.33402184291717,-0.321251282545879,0.2892101650844129
0.9999999999999999,1.59999994,0.10662930617322341,-0.002233472361757985,0.10080137192420308,-0.0020191927324576435,0.006081887299356962,10.080137192420365,-0.20191927324576434,0.30409436496784836
0.9999999999999999,1.79999992,0.10692191103848347,-0.0025515000098723234,0.09858483307708488,-0.000886960611635264,0.004523758171507244,9.858483307708502,-0.0886960611635264,0.22618790857536225
0.9999999999999999,1.9999999,0.10654400864385415,-0.00264166936136685,0.09773059429124029,-0.00035226175794728743,0.0019998959833564863,9.773059429124043,-0.03522617579472875,0.09999479916782403
1.19999998,1e-07,0.12609942085982656,0.0018476439802943352,0.09990226966547755,-0.00021382285112011909,-0.0005675581716635615,9.99022696654772,-0.02138228511201191,-0.028377908583178353
1.19999998,0.20000008,0.12650894540429058,0.0017927472906640095,0.09982866249179234,-0.0005240852255141002,-0.0021368313939161177,9.982866249179287,-0.05240852255141002,-0.10684156969580609
1.19999998,0.40000006,0.126502992646713,0.0015991798943266354,0.100505908132928,-0.001246419798314713,-0.003229655297604813,10.050590813292827,-0.12464197983147132,-0.16148276488024166
1.19999998,0.60000004,0.12626397347596444,0.0012148896563019935,0.10157646302223867,-0.002140321900126104,-0.0032775442060037872,10.157646302223899,-0.2140321900126103,-0.1638772103001859
1.19999998,0.8000000199999999,0.12601215096863994,0.0006675396153451993,0.10256381727967834,-0.0030472949978907556,-0.002214599310320742,10.256381727967854,-0.3047294997890756,-0.11072996551603217
1.19999998,0.9999999999999999,0.12590575622832245,2.943448655451161e-05,0.10298371999401393,-0.003489640034205457,4.07759204467134e-06,10.298371999401414,-0.34896400342054584,0.00020387960224347462
1.19999998,1.19999998,0.12600266965428275,-0.0006084714612444415,0.10256244214984522,-0.0030431183520957723,0.0022183011186871944,10.256244214984545,-0.3043118352095772,0.11091505593435388
1.19999998,1.39999996,0.12624466740563828,-0.0011553363823995468,0.10157506518848917,-0.0021370246343094352,0.0032766000984820564,10.157506518848969,-0.21370246343094354,0.16383000492410366
1.19999998,1.59999994,0.1264735135639235,-0.0015390988641945228,0.10050552799419632,-0.0012450058185565094,0.003228738241654039,10.050552799419588,-0.12450058185565092,0.16143691208270236
1.19999998,1.79999992,0.12646926422310895,-0.001732314866989834,0.09982943117793694,-0.0005235554943214408,0.002136285197239453,9.982943117793686,-0.052355549432144086,0.10681425986197242
1.19999998,1.9999999,0.1260498563917885,-0.0017870902288835472,0.09990396173666902,-0.0002133787134883781,0.0005666476734395327,9.990396173666879,-0.021337871348837807,0.028332383671976845
1.39999996,1e-07,0.1459012581627457,0.0012294921306054286,0.09993048244712796,-0.0001334667592236503,0.0001259824073719393,9.993048244712796,-0.013346675922365029,0.006299120368597172
1.39999996,0.20000008,0.14626199841159704,0.001195469091497532,0.09953919781296854,-0.00030154284072111937,-0.0008200523423564411,9.953919781296857,-0.030154284072111945,-0.04100261711782198
1.39999996,0.40000006,0.14637548154817975,0.0010760017245321732,0.0996693815018834,-0.0007418738958468861,-0.0015209792075222622,9.96693815018835,-0.07418738958468855,-0.0760489603761163
1.39999996,0.60000004,0.14632022289243807,0.0008306458052656456,0.09999285880802128,-0.0013633791568110729,-0.0016623871296724457,9.999285880802145,-0.13633791568110715,-0.0831193564836291
1.39999996,0.8000000199999999,0.146216510342436,0.0004678094039307707,0.10028971760390144,-0.0020342729173287127,-0.0011492468206205726,10.028971760390125,-0.2034272917328713,-0.05746234103100441
1.39999996,0.9999999999999999,0.14616533005958665,3.461027985326375e-05,0.10042112068887347,-0.002364860081961292,1.2733265037409677e-06,10.042112068887334,-0.23648600819612922,6.366632514524621e-05
1.39999996,1.19999998,0.14620678880285012,-0.00039847881998726636,0.1002891389942307,-0.0020317516298010915,0.0011502509661262981,10.02891389942307,-0.20317516298010924,0.057512548306332616
1.39999996,1.39999996,0.14630063421383502,-0.0007610534889528544,0.09999238682042369,-0.0013614592100483324,0.0016622734216337192,9.999238682042344,-0.13614592100483322,0.08311367108169677
1.39999996,1.59999994,0.14634590121523636,-0.0010061362181251303,0.099669363155774,-0.0007413008695033578,0.0015211408690729194,9.96693631557739,-0.07413008695033581,0.07605704345364746
1.39999996,1.79999992,0.1462224580999665,-0.0011254286806440179,0.09953949299515782,-0.0003015107911335669,0.0008209161671186845,9.953949299515779,-0.030151079113356686,0.041045808355934736
1.39999996,1.9999999,0.14585192387360796,-0.001159390751907871,0.09993082157136869,-0.00013324994971100976,-0.00012551938083451414,9.993082157136874,-0.013324994971100975,-0.006275969041725636
1.59999994,1e-07,0.16583250510490655,0.0007990614159556686,0.09954075337447506,-8.029780258852836e-05,0.00023782064839025265,9.954075337447513,-0.008029780258852837,0.011891032419512674
1.59999994,0.20000008,0.16612129370581807,0.0007780577645484647,0.09897167750842331,-0.00017110869512227225,-0.0002935730626878055,9.897167750842328,-0.01711086951222723,-0.014678653134390334
1.59999994,0.40000006,0.16627128389773932,0.0007047186639116352,0.09893213085448854,-0.00044326396745950926,-0.0007101764766613746,9.893213085448858,-0.044326396745950875,-0.03550882383306989
1.59999994,0.60000004,0.166304028118645,0.0005512845207340113,0.09904004682724193,-0.0008542486053460462,-0.0008881674918650353,9.904004682724198,-0.08542486053460457,-0.04440837459325188
1.59999994,0.8000000199999999,0.16627874914730578,0.0003197108819829436,0.09910698311299078,-0.0013068357916528551,-0.0006534701725830326,9.91069831129908,-0.13068357916528547,-0.03267350862913415
1.59999994,0.9999999999999999,0.1662581074485057,3.967631249398077e-05,0.0991147317884363,-0.0015256316907516488,4.594792068353631e-07,9.91147317884363,-0.15256316907516493,2.297396034019964e-05
1.59999994,1.19999998,0.16626892716612404,-0.0002403022860474812,0.09910676065179547,-0.0013054291281986597,0.000653915582970251,9.91067606517955,-0.13054291281986596,0.03269577914853474
1.59999994,1.39999996,0.16628433094530692,-0.00047174407375880935,0.09903989875316718,-0.0008531486023949464,0.0008879742307761078,9.903989875316723,-0.0853148602394947,0.04439871153880852
1.59999994,1.59999994,0.16624167796448136,-0.0006250433639775986,0.09893220049210498,-0.00044301317532682334,0.0007104587404352684,9.893220049210505,-0.04430131753268233,0.035522937021767106
1.59999994,1.79999992,0.16608181459299987,-0.0006982976790341247,0.09897183876558646,-0.00017118752002584888,0.00029436565666430767,9.897183876558648,-0.01711875200258489,0.014718282833215173
1.59999994,1.9999999,0.16578323408304696,-0.0007192712946033893,0.09954058124995228,-8.020006294142876e-05,-0.0002373142096067376,9.954058124995228,-0.008020006294142878,-0.011865710480336904
1.79999992,1e-07,0.18580874419804758,0.0005044630697131524,0.09930207726573076,-3.6463663648184014e-05,1.4173024450142948e-05,9.930207726573073,-0.003646366364818402,0.0007086512225071302
1.79999992,0.20000008,0.1860335157471964,0.0004944355848672528,0.09862862724455823,-9.206977623716743e-05,-0.00013225485148202025,9.862862724455823,-0.00920697762371675,-0.006612742574101092
1.79999992,0.40000006,0.18618650686124721,0.00045490313581915594,0.09855689468450439,-0.00024806944541233463,-0.000327948463867762,9.85568946845044,-0.024806944541233503,-0.016397423193387634
1.79999992,0.60000004,0.18625423194878546,0.0003655379112438207,0.09860090797068659,-0.0005080146454942,-0.00045799013547214416,9.860090797068658,-0.05080146454941989,-0.02289950677360416
1.79999992,0.8000000199999999,0.1862633214341132,0.00022279981396098534,0.09866172216095265,-0.0008162011683934639,-0.0003753222656731578,9.866172216095267,-0.08162011683934642,-0.01876611328367207
1.79999992,0.9999999999999999,0.1862562304090974,4.4675424590560175e-05,0.09870096069849782,-0.0009684716099090304,2.379427799506227e-07,9.870096069849783,-0.09684716099090306,1.1897139007967326e-05
1.79999992,1.19999998,0.18625346490397382,-0.00013342007684192026,0.09866168326917668,-0.0008153979470972164,0.00037533907126202827,9.866168326917666,-0.08153979470972167,0.01876695356309331
1.79999992,1.39999996,0.18623450113811643,-0.0002760914233619807,0.09860091834998906,-0.0005074231093472691,0.00045776092452410526,9.860091834998904,-0.05074231093472691,0.022888046226207076
1.79999992,1.59999994,0.18615690010470315,-0.0003653907231829125,0.09855699828977868,-0.00024798233023824544,0.00032815541266179466,9.855699828977865,-0.02479823302382452,0.016407770633091723
1.79999992,1.79999992,0.18599406135202265,-0.0004048838926166651,0.09862872577905568,-9.216973951539642e-05,0.00013267894793149386,9.862872577905572,-0.00921697395153964,0.006633947396574807
1.79999992,1.9999999,0.18575947707751686,-0.00041490075563807197,0.09930176383484457,-3.648996070666555e-05,-1.401153983976325e-05,9.930176383484453,-0.003648996070666555,-0.0007005769919881683
1.9999999,1e-07,0.2057727449768679,0.0002613479851788718,0.09905150987776482,2.573215951348179e-05,-0.00034656283885204666,9.905150987776482,0.002573215951348179,-0.017328141942602328
1.9999999,0.20000008,0.20596288397497592,0.0002859212006079945,0.09845750952652244,-0.0002231868878103352,-0.00013445386471876017,9.845750952652242,-0.02231868878103352,-0.0067226932359386185
1.9999999,0.40000006,0.20611391159838785,0.0002860431986939867,0.09843452665729938,-0.0001328141130845674,-0.00024383171336379516,9.843452665729938,-0.01328141130845673,-0.012191585668185984
1.9999999,0.60000004,0.20619131411571223,0.00025661766864441056,0.09848182997165571,-0.00018449081094924384,-0.00026788141266664226,9.848182997165571,-0.018449081094924387,-0.013394070633339219
1.9999999,0.8000000199999999,0.20621077808912341,0.00017407351438752822,0.09853125182601716,-0.00038474152737731594,-0.00021024481958409,9.853125182601717,-0.03847415273773158,-0.010512240979206278
1.9999999,0.9999999999999999,0.2062079630162315,4.963091934173322e-05,0.09855074140748914,-0.0005130834423011131,1.960244818727968e-07,9.855074140748913,-0.05130834423011131,9.801224089199707e-06
1.9999999,1.19999998,0.20620092019637468,-7.478793332941759e-05,0.09853133402617709,-0.0003846986073605803,0.0002103183380519291,9.853133402617708,-0.038469860736058,0.010515916902596453
1.9999999,1.39999996,0.20617158658585305,-0.00015728157865213508,0.09848198395518461,-0.00018493864835824543,0.00026778605570779184,9.848198395518459,-0.018493864835824533,0.013389302785388704
1.9999999,1.59999994,0.20608431649905204,-0.00018666841632940213,0.09843470834719453,-0.000133526424656654,0.0002439598159215284,9.843470834719454,-0.013352642465665403,0.012197990796079755
1.9999999,1.79999992,0.2059234435783532,-0.00018654097282249258,0.09845760692475045,-0.0002239343021515582,0.00013435865643297534,9.845760692475046,-0.022393430215155816,0.0067179328216471585
1.9999999,1.9999999,0.2057234600205806,-0.00016196993321417573,0.09905107885938422,2.4467542081646648e-05,0.0003460591044694445,9.905107885938422,0.002446754208164665,0.017302955223472236
