x,y,u_x,u_y,strain_xx,strain_yy,strain_xy,stress_xx,stress_yy,stress_xy
1e-07,1e-07,-0.030589193312658264,0.004127320667214597,-0.10981722264476079,-0.0047756957859143925,0.012851344803282915,-10.98172226447608,-0.4775695785914392,0.6425672401641458
1e-07,0.22222229999999998,-0.02624127371341981,0.0023768679022789507,-0.09230853761348577,-0.013726860001437972,0.007005996735496366,-9.230853761348575,-1.372686000143797,0.3502998367748198
1e-07,0.44444449999999996,-0.026864059159463233,-6.172333530892576e-05,-0.09510968850963217,-0.009326063768411883,0.0035849243013642536,-9.510968850963218,-0.9326063768411882,0.17924621506821264
1e-07,0.6666666999999998,-0.029006265308738916,-0.0011626432567752622,-0.10209406840035523,0.0013885463721600448,-0.011649620044748107,-10.209406840035525,0.1388546372160046,-0.5824810022374043
1e-07,0.8888888999999999,-0.031070614841048682,-0.0011740330422347718,-0.10834581909892652,0.003147669785452098,-0.003275099661185306,-10.83458190989265,0.3147669785452098,-0.1637549830592648
1e-07,1.1111111,-0.031071398698124805,0.001173680022981239,-0.10834794271285278,0.0031355137091342933,0.0032672395575814414,-10.83479427128528,0.3135513709134294,0.16336197787907197
1e-07,1.3333332999999998,-0.02900883349341437,0.0011623370613743239,-0.1021033511192255,0.0013938623111239782,0.011649632818674418,-10.210335111922548,0.13938623111239778,0.5824816409337188
1e-07,1.5555554999999999,-0.026865471780778354,6.291713351917652e-05,-0.09511296347653908,-0.009324014653363619,-0.003577479188811795,-9.511296347653909,-0.9324014653363619,-0.1788739594405896
1e-07,1.7777777,-0.026238954279427035,-0.002376748328981236,-0.09230620060857847,-0.013742287261549635,-0.007013715769833758,-9.230620060857845,-1.3742287261549633,-0.35068578849168985
1e-07,1.9999999,-0.030590164563003883,-0.004128253646909206,-0.10980523854070935,-0.004770574217660481,-0.01286262284266889,-10.980523854070936,-0.47705742176604815,-0.6431311421334446
0.22222229999999998,1e-07,-0.03027322649810773,0.00115651662437303,0.20655273039677832,0.00177494644835387,-0.020631902249964897,20.65527303967783,0.17749464483538696,-1.0315951124982445
0.22222229999999998,0.22222229999999998,-0.028151597879871613,0.0012285474194557242,0.20578280976794744,-0.002158573830927472,-0.0016241353993137427,20.578280976794737,-0.2158573830927472,-0.08120676996568661
0.22222229999999998,0.44444449999999996,-0.02943717180642312,0.000979672352574987,0.16565783783953006,-0.0010438601530047041,-0.00680006485495283,16.565783783953012,-0.10438601530047038,-0.34000324274764154
0.22222229999999998,0.6666666999999998,-0.03096089094715002,0.00010775292279650729,0.2100545821066944,-0.0016263874894547705,-0.014257745473098483,21.005458210669435,-0.16263874894547709,-0.7128872736549239
0.22222229999999998,0.8888888999999999,-0.03346093524713981,0.0003149759793252974,0.19758662508014185,0.0009373642084366591,0.0019301869253633827,19.758662508014186,0.09373642084366596,0.09650934626816904
0.22222229999999998,1.1111111,-0.03346197222558954,-0.00031488770906779864,0.197589195887027,0.0009417734688882176,-0.0019191600287646496,19.7589195887027,0.09417734688882179,-0.09595800143823255
0.22222229999999998,1.3333332999999998,-0.030963190701017104,-0.00010734340571060187,0.210072346657542,-0.0016342018276233918,0.014254674212223721,21.007234665754186,-0.1634201827623392,0.7127337106111866
0.22222229999999998,1.5555554999999999,-0.02943865660735197,-0.0009795396948384298,0.16566330844162322,-0.001044386169343878,0.006818225424560757,16.566330844162323,-0.10443861693438775,0.3409112712280379
0.22222229999999998,1.7777777,-0.028149841936474088,-0.0012280539102571967,0.20577026245970576,-0.002148573002791517,0.0015806753523604118,20.577026245970576,-0.21485730027915184,0.07903376761801972
0.22222229999999998,1.9999999,-0.03027289878082997,-0.0011558124711815293,0.2065472626691992,0.001770809922944907,0.020626954273677185,20.654726266919923,0.1770809922944906,1.0313477136838596
0.44444449999999996,1e-07,-0.00702735467094337,0.001077945130281819,0.04078704020659778,-0.0016666984625859998,0.00011919831944034931,4.078704020659778,-0.16666984625859999,0.005959915972017438
0.44444449999999996,0.22222229999999998,-0.00700997178434556,0.0008201663636676334,0.05505790730531386,-0.00013847992109468113,0.00476271110267207,5.505790730531387,-0.013847992109468073,0.23813555513360385
0.44444449999999996,0.44444449999999996,-0.007157723916758053,0.0007018388617801559,0.052180781981466785,-0.0007181168764890324,-0.002648864672203502,5.21807819814668,-0.07181168764890326,-0.13244323361017504
0.44444449999999996,0.6666666999999998,-0.008288666852783656,0.0006097602834208137,0.05239941208856014,-0.0013073448365505751,-0.006215376748847992,5.239941208856014,-0.1307344836550575,-0.3107688374423997
0.44444449999999996,0.8888888999999999,-0.009236511129553319,0.00020986848209656096,0.05496983703299957,-0.0018878774457166062,-0.004998969202677885,5.496983703299954,-0.1887877445716607,-0.24994846013389416
0.44444449999999996,1.1111111,-0.009237057346843174,-0.00020969253608122673,0.054971228234608184,-0.0018879249673180748,0.004994732607773882,5.497122823460818,-0.18879249673180748,0.24973663038869415
0.44444449999999996,1.3333332999999998,-0.008289859619654364,-0.0006096241905915348,0.05240041647184158,-0.001306622876138867,0.006213147570819609,5.2400416471841575,-0.1306622876138867,0.31065737854098
0.44444449999999996,1.5555554999999999,-0.007158512599741288,-0.0007017777997119298,0.05218230203219729,-0.0007182902910787482,0.0026541715523005324,5.21823020321973,-0.07182902910787481,0.1327085776150266
0.44444449999999996,1.7777777,-0.007009385027807501,-0.0008201737135439795,0.05505513013605713,-0.00014056935132836094,-0.0047634810845136565,5.505513013605713,-0.014056935132836,-0.23817405422568277
0.44444449999999996,1.9999999,-0.007026994525169261,-0.001077927872920289,0.040790474929852244,-0.001665566796272477,-0.000121797296461646,4.079047492985225,-0.1665566796272477,-0.006089864823082267
0.6666666999999998,1e-07,0.012390351785785562,0.00045966683189283545,0.12216950992678899,0.0008542923098130509,-0.00859549402174016,12.216950992678898,0.08542923098130507,-0.42977470108700805
0.6666666999999998,0.22222229999999998,0.012598313402139863,0.0006322857960191026,0.11240022679030638,0.0006899138764829943,-0.0011185877022997543,11.24002267903064,0.0689913876482994,-0.055929385114987316
0.6666666999999998,0.44444449999999996,0.011915884330688966,0.000635467778750138,0.11475753584924242,-0.0001328588579285546,-0.0025197044632921193,11.475753584924243,-0.013285885792855457,-0.12598522316460598
0.6666666999999998,0.6666666999999998,0.011657647921987747,0.0004958296507200086,0.1172649781916641,-0.0013392687262367689,-0.008847859844806584,11.726497819166411,-0.13392687262367683,-0.4423929922403277
0.6666666999999998,0.8888888999999999,0.010952492805451623,0.00024252219071801683,0.1185022597757031,-0.0013330897424581633,0.0012610563063588833,11.850225977570306,-0.13330897424581634,0.06305281531794409
0.6666666999999998,1.1111111,0.01095219630304936,-0.0002424094040803951,0.11850301959944215,-0.001332904156185956,-0.0012556552807598377,11.850301959944217,-0.1332904156185956,-0.06278276403799182
0.6666666999999998,1.3333332999999998,0.011657083279747538,-0.0004958334050576455,0.1172668832783268,-0.0013393658488551037,0.008847452727089181,11.726688327832681,-0.13393658488551038,0.4423726363544592
0.6666666999999998,1.5555554999999999,0.011915397239307892,-0.0006355251096869098,0.11475851017197516,-0.00013398369080664955,0.002526128579947766,11.475851017197515,-0.013398369080664958,0.1263064289973883
0.6666666999999998,1.7777777,0.012598556152648356,-0.0006324078954325512,0.11239954050094969,0.0006929309819713786,0.0011085608999996622,11.23995405009497,0.06929309819713789,0.055428044999984494
0.6666666999999998,1.9999999,0.012390345309494736,-0.0004597995107289385,0.12216583163191803,0.0008534914849924464,0.008597438986109193,12.216583163191801,0.08534914849924465,0.42987194930545974
0.8888888999999999,1e-07,0.03283028672537942,0.0007458821960245496,0.08547840750863987,-0.0009745463473609856,0.002117505883968621,8.547840750863987,-0.09745463473609856,0.10587529419843106
0.8888888999999999,0.22222229999999998,0.03290430395353757,0.0005617148296825207,0.08871708823615602,-0.0003857897610927954,-0.0005631120908895855,8.8717088236156,-0.038578976109279475,-0.028155604544477263
0.8888888999999999,0.44444449999999996,0.03277325158985677,0.0004875095320136378,0.08932875780444599,-0.000371232331917901,-0.0013763117735431506,8.932875780444599,-0.0371232331917901,-0.06881558867715759
0.8888888999999999,0.6666666999999998,0.03240277908307293,0.00038233728330278776,0.08948529960371436,-0.0010366442162987077,-0.0019156019137482926,8.948529960371435,-0.10366442162987072,-0.0957800956874154
0.8888888999999999,0.8888888999999999,0.03220284062213942,0.0001441023078006663,0.09124103406386337,-0.0011308892197715757,-0.0016619857837911116,9.124103406386334,-0.11308892197715754,-0.0830992891895554
0.8888888999999999,1.1111111,0.032202723069921536,-0.00014406440930980684,0.09124175956885953,-0.0011308371213989451,0.0016600549729899698,9.124175956885953,-0.11308371213989452,0.08300274864949846
0.8888888999999999,1.3333332999999998,0.032402420845834556,-0.00038234668245508906,0.0894862987022257,-0.0010367714143580428,0.0019154551886765034,8.948629870222572,-0.1036771414358043,0.09577275943382671
0.8888888999999999,1.5555554999999999,0.032772989699702416,-0.00048760345324921954,0.08932973504447331,-0.0003714259617979148,0.001376816887866938,8.93297350444733,-0.03714259617979149,0.06884084439334691
0.8888888999999999,1.7777777,0.03290426333271704,-0.0005619185940287534,0.08871582380292992,-0.00038787327275260507,0.0005622990423196241,8.87158238029299,-0.03878732727526048,0.028114952115981938
0.8888888999999999,1.9999999,0.03283029291532925,-0.000746086997301328,0.08547897578793134,-0.0009739057099724995,-0.0021176799342366424,8.547897578793133,-0.09739057099724992,-0.1058839967118321
1.1111111,1e-07,0.05509346695190024,0.0002889676820606901,0.10073919239465313,0.000529610128601432,-0.0021598779692429204,10.073919239465313,0.05296101286014321,-0.10799389846214602
1.1111111,0.22222229999999998,0.05510413522616432,0.00040377639979527155,0.09768714588186023,0.00015816702272779232,0.00012824417493170886,9.768714588186024,0.015816702272779256,0.006412208746583652
1.1111111,0.44444449999999996,0.05494745238417335,0.0003571523411781761,0.10002728046573497,-0.0002279115361003873,-0.0011567358511227496,10.002728046573493,-0.022791153610038726,-0.05783679255613728
1.1111111,0.6666666999999998,0.054841550569441386,0.0002554735281878087,0.0993584545251684,-0.0007642971384217586,-0.0016521686328910881,9.93584545251684,-0.07642971384217585,-0.08260843164455635
1.1111111,0.8888888999999999,0.05468601068909745,0.00010977619780737472,0.10028219866360104,-0.000723875704784895,-0.0002135414027119058,10.028219866360102,-0.07238757047848951,-0.01067707013559517
1.1111111,1.1111111,0.05468592239114108,-0.00010978218095269303,0.10028236818680068,-0.000723970685066753,0.0002137628965601876,10.02823681868007,-0.07239706850667531,0.010688144828009383
1.1111111,1.3333332999999998,0.05484138293146569,-0.0002555348583296121,0.09935868107778366,-0.0007641697321031647,0.0016516699726448272,9.935868107778367,-0.07641697321031649,0.0825834986322405
1.1111111,1.5555554999999999,0.0549472555909875,-0.00035723478452187954,0.1000274549612314,-0.00022859469661727093,0.0011581489836123163,10.002745496123136,-0.022859469661727094,0.0579074491806158
1.1111111,1.7777777,0.055104074480428394,-0.0004039005152759519,0.09768678006874827,0.0001602636113387059,-0.0001302811113962889,9.768678006874826,0.016026361133870605,-0.006514055569820397
1.1111111,1.9999999,0.055093246007159334,-0.00028909458378862366,0.10073877947397616,0.000529061287316728,0.002160314341326352,10.073877947397616,0.05290612873167279,0.10801571706631763
1.3333332999999998,1e-07,0.0764644960059004,0.0004068022891571957,0.09796689008861113,-0.0005377611813190951,0.00019373363361604163,9.796689008861119,-0.05377611813190952,0.009686681680802098
1.3333332999999998,0.22222229999999998,0.07648323190914712,0.00030213449007466473,0.09840520223069543,-0.0002892929437909204,-0.0005830144684788095,9.840520223069543,-0.02892929437909198,-0.029150723423932916
1.3333332999999998,0.44444449999999996,0.0764995916761941,0.0002500804350795422,0.09888198909812368,-0.00025118707683129566,-0.0006331737040268595,9.888198909812369,-0.02511870768312956,-0.03165868520134298
1.3333332999999998,0.6666666999999998,0.07639014017243567,0.00017661741122586364,0.09899092939532882,-0.0005393085319877515,-0.00031999050753104343,9.899092939532892,-0.05393085319877517,-0.015999525376555634
1.3333332999999998,0.8888888999999999,0.07637663140961032,6.437426037748049e-05,0.09951678590718988,-0.000508195103926534,-0.0005723081489289335,9.95167859071899,-0.05081951039265338,-0.028615407446446632
1.3333332999999998,1.1111111,0.07637661272762125,-6.438752644720998e-05,0.0995169157518954,-0.000508134642337294,0.000571276351560885,9.951691575189544,-0.05081346423372939,0.028563817578044718
1.3333332999999998,1.3333332999999998,0.07639002431512372,-0.00017664099928341062,0.09899129241019004,-0.0005395589363315697,0.00032015694207237995,9.899129241018995,-0.05395589363315698,0.016007847103617898
1.3333332999999998,1.5555554999999999,0.07649947302001572,-0.0002501342225257016,0.09888218924900093,-0.0002511279339684316,0.0006328717439087302,9.888218924900094,-0.025112793396843164,0.03164358719543653
1.3333332999999998,1.7777777,0.07648307553777668,-0.0003022260267749526,0.09840497799921073,-0.0002904530670950836,0.0005836650770023459,9.840497799921076,-0.029045306709508348,0.02918325385012003
1.3333332999999998,1.9999999,0.07646431864343417,-0.0004068940819228302,0.09796688763818517,-0.0005373941254338844,-0.00019365935781475495,9.796688763818521,-0.053739412543388446,-0.009682967890737741
1.5555554999999999,1e-07,0.09886294180371624,0.00017480715398100047,0.09862624241392298,0.00016846222477149805,-4.607992053339738e-05,9.8626242413923,0.016846222477149807,-0.002303996026669873
1.5555554999999999,0.22222229999999998,0.09889029592911866,0.00021161934320268786,0.09776194366314393,-3.874658569572869e-05,-4.1965818501357466e-05,9.776194366314392,-0.0038746585695728477,-0.002098290925068109
1.5555554999999999,0.44444449999999996,0.0988646762423166,0.00017680107787633868,0.09830295932199588,-0.00015128707697798565,-0.0004096493407601773,9.830295932199585,-0.015128707697798567,-0.020482467038008424
1.5555554999999999,0.6666666999999998,0.09882905644914014,0.00012224471534816306,0.09815053901660192,-0.00037673284563505787,-0.0002820198099182881,9.815053901660193,-0.0376732845635058,-0.01410099049591262
1.5555554999999999,0.8888888999999999,0.0987979625366542,4.7675344005825474e-05,0.09840145678444535,-0.0003548069279727389,-0.00021712079743687574,9.840145678444536,-0.03548069279727389,-0.010856039871841956
1.5555554999999999,1.1111111,0.0987979275465583,-4.76628658882777e-05,0.0984016017033646,-0.0003548476888895337,0.00021704320286017082,9.840160170336462,-0.03548476888895337,0.010852160143007798
1.5555554999999999,1.3333332999999998,0.09882897946332095,-0.00012224835591741057,0.09815052953587342,-0.0003766307602959414,0.00028188401440666725,9.81505295358734,-0.03766307602959415,0.01409420072033846
1.5555554999999999,1.5555554999999999,0.0988645499778358,-0.00017680311673857026,0.0983030760822324,-0.00015153639752847907,0.0004098641358263014,9.830307608223238,-0.015153639752847906,0.020493206791315003
1.5555554999999999,1.7777777,0.09889015429456241,-0.00021163700837213004,0.09776179075602369,-3.79991820366422e-05,4.1599283205949814e-05,9.77617907560237,-0.003799918203664217,0.002079964160299588
1.5555554999999999,1.9999999,0.09886271030788975,-0.00017482319178249793,0.09862627547535642,0.0001681966442596663,4.609209796836845e-05,9.86262754753564,0.01681966442596663,0.00230460489841842
1.7777777,1e-07,0.12085099158370764,0.00019975926694893432,0.10101418244200368,-0.00016491865816326392,-0.00019361137509356724,10.101418244200351,-0.01649186581632639,-0.009680568754678365
1.7777777,0.22222229999999998,0.12082886340579754,0.00014896054345010229,0.10267450612045219,-0.0002648612167138029,-0.00014296880757065227,10.267450612045222,-0.02648612167138027,-0.007148440378534083
1.7777777,0.44444449999999996,0.12084999296556484,0.0001288017827298232,0.10146096819729686,-6.768434977947349e-05,-0.00012864097176015614,10.146096819729674,-0.006768434977947348,-0.006432048588007878
1.7777777,0.6666666999999998,0.12081693167367742,8.000565607553699e-05,0.10203547336894164,-0.00028638193492125163,-4.198903994764267e-05,10.203547336894184,-0.028638193492125166,-0.002099451997382488
1.7777777,0.8888888999999999,0.12082035227893285,3.6302062891545744e-05,0.10167031618250202,-0.0001940277761286316,-0.00010250385699602646,10.16703161825021,-0.01940277761286316,-0.005125192849802194
1.7777777,1.1111111,0.12082033881340751,-3.625710943021213e-05,0.10167022081786649,-0.0001939278180407204,0.0001021339451260898,10.167022081786664,-0.019392781804072043,0.005106697256304058
1.7777777,1.3333332999999998,0.12081686212476907,-7.99617228487775e-05,0.10203556499991942,-0.0002867063322319177,4.202428449273096e-05,10.203556499991949,-0.028670633223191785,0.0021012142246370743
1.7777777,1.5555554999999999,0.12084988755582478,-0.00012875479035994722,0.10146091627146898,-6.761542006272455e-05,0.00012858091314394855,10.146091627146891,-0.00676154200627245,0.006429045657197422
1.7777777,1.7777777,0.12082869861566269,-0.00014892305558428118,0.10267456045781032,-0.0002656107248054366,0.00014339613580896266,10.267456045781023,-0.026561072480543655,0.007169806790451685
1.7777777,1.9999999,0.12085077698937792,-0.00019971995414841165,0.10101421734616567,-0.00016468974926678946,0.00019371496178687087,10.101421734616576,-0.016468974926678946,0.00968574808934355
1.9999999,1e-07,0.14307220140287094,0.00011642073920515432,0.09864396703493616,-0.0001560058933846802,0.0001863537552076254,9.864396703493615,-0.015600589338468017,0.00931768776038127
1.9999999,0.22222229999999998,0.1430883095565431,0.0001516639617316795,0.09816923670717138,0.0003377533419659669,-0.0004329898736076733,9.81692367071714,0.03377533419659669,-0.02164949368038255
1.9999999,0.44444449999999996,0.14306162393789115,0.00011110087391755601,0.09825419994673068,-0.00033445917796447416,-7.751389353150833e-05,9.825419994673066,-0.03344591779644742,-0.0038756946765756525
1.9999999,0.6666666999999998,0.14304987705043226,9.753534732551921e-05,0.09829288315827792,-0.00012235042005529436,3.328941929403177e-05,9.829288315827792,-0.012235042005529436,0.001664470964700255
1.9999999,0.8888888999999999,0.14304233554068962,1.759799797249644e-05,0.09834216532394253,-0.00032711176278454185,-0.0001913857494000807,9.834216532394255,-0.03271117627845418,-0.00956928747000459
1.9999999,1.1111111,0.14304233259018215,-1.751439217547088e-05,0.09834234900483335,-0.00032733567627832175,0.00019128412432222342,9.834234900483334,-0.03273356762783218,0.009564206216108727
1.9999999,1.3333332999999998,0.14304979916008576,-9.744500053420326e-05,0.0982927730007636,-0.00012182418500898017,-3.3079936611692676e-05,9.82927730007636,-0.012182418500898018,-0.0016539968305719754
1.9999999,1.5555554999999999,0.14306152618613177,-0.00011101162805617832,0.09825433096171274,-0.0003346561478432319,7.733618383176655e-05,9.825433096171272,-0.03346561478432319,0.003866809191588701
1.9999999,1.7777777,0.14308813942277512,-0.0001515461230935389,0.09816914213892061,0.000338723442816868,0.00043306145845559504,9.81691421389206,0.03387234428168682,0.021653072922782863
1.9999999,1.9999999,0.14307198540665322,-0.00011632384275800628,0.09864397102230714,-0.00015638916167613393,-0.0001863020922321337,9.864397102230713,-0.015638916167613395,-0.009315104611606681
