x,y,u_x,u_y,strain_xx,strain_yy,strain_xy,stress_xx,stress_yy,stress_xy
1e-07,1e-07,-0.08177685829203427,0.12912728574896828,-0.008374958125565029,-0.5390566043333265,1.2044855788376898,-18.691421914897028,-59.513087007801744,46.32636841683423
1e-07,0.22222229999999998,0.0976948970957293,0.00624229522495644,0.8497277718558023,-0.5606994004708478,0.2969912305537973,74.89208260599426,-33.6023152652865,11.42273963668451
1e-07,0.44444449999999996,-0.07053946311093677,-0.03403807221941051,-0.6715429939921991,0.32995176281082106,-0.788702420032979,-62.91840276362117,14.119655451995751,-30.334708462806876
1e-07,0.6666666999999998,-0.00799175677100741,0.03765400380032397,-0.0999451431804722,0.021019476560353436,0.7810329543367845,-10.290032990369916,-0.9850622410756298,30.03972901295325
1e-07,0.8888888999999999,0.0903405797586449,-0.009925014147369234,0.7893243158955304,-0.1769604137818191,-0.29804518585235523,80.90507601769062,6.575481427125279,-11.46327637893674
1e-07,1.1111111,-0.06409249992208971,-0.0021005767951736256,-0.5954540097299985,0.2864711429145354,-0.287689197948526,-55.99040295116899,11.849993406102845,-11.064969151866382
1e-07,1.3333332999999998,-0.015865240005807395,0.08632816389394586,-0.1407087161927202,0.25420654195415204,1.0896742748171713,-7.0820608358763275,23.2960359446523,41.910549031429674
1e-07,1.5555554999999999,0.09155263674282771,0.03917890938393019,0.8521825315795624,-0.45371206096268635,-0.04985377544114761,78.68889157041278,-21.76453862514481,-1.9174529015825905
1e-07,1.7777777,-0.09099167294562237,0.04241273052088228,-0.7739979170209397,0.3784679441840495,0.38200844048693855,-72.57775096326644,16.073469129425003,14.692632326420712
1e-07,1.9999999,0.012306773763546877,0.12069860237693861,-0.4766315237269905,0.13366220879003163,1.5590877966672785,-47.970644075822094,-1.0249723437434637,59.96491525643379
0.22222229999999998,1e-07,-0.00195883724298205,-0.03148062419178869,0.0903021757021945,0.03027894103153394,0.14431388261450173,10.921522858423591,6.3043509606804715,5.550533946711609
0.22222229999999998,0.22222229999999998,0.05082829014312046,-0.01157943036353495,-0.22858525650124353,0.13050898677285597,-0.09961863286651751,-20.816764886745794,6.80586921126186,-3.8314858794814435
0.22222229999999998,0.44444449999999996,-0.04363008054928305,-0.006932435531888537,0.131570134212091,-0.14720536439359386,-0.6892283377544542,9.605332405935474,-11.838936717578743,-26.508782221325163
0.22222229999999998,0.6666666999999998,-0.007038582714061571,-0.030499256018293792,0.06338750111532035,0.03870903956428094,0.6219004845067295,8.241781646659852,6.343438450426044,23.91924940410498
0.22222229999999998,0.8888888999999999,0.047917891539324624,-0.0025083199580398633,-0.17522631657917342,0.13437478292638427,-0.35948480061336135,-14.825701285852546,8.989767906882665,-13.826338485129284
0.22222229999999998,1.1111111,-0.04063678863889423,0.014046824678102362,0.11528368225626197,-0.005210272717776479,-0.5116096978611114,12.496769279222967,3.228003511989242,-19.677296071581214
0.22222229999999998,1.3333332999999998,-0.011879230830614552,0.004657313137799541,-0.028176090010841443,0.00996772878404652,0.4889708153824935,-2.7676671841348908,0.16647272316418915,18.806569822403592
0.22222229999999998,1.5555554999999999,0.05443157282477482,0.033355414590283745,-0.16871793929588538,0.17203159320746184,-0.5846995589478522,-12.86906168501613,13.342440815241343,-22.488444574917384
0.22222229999999998,1.7777777,-0.04391137528767819,0.029267102573949443,0.20624919746574444,-0.18738762089400046,-0.39240467114457456,16.487133098631247,-13.792622159810671,-15.092487351714404
0.22222229999999998,1.9999999,-0.013175743112998928,-0.011422899830331543,0.024381157821287705,-0.12071489459500732,0.16330951617282322,-1.3003637974960964,-12.461598598749555,6.281135237416277
0.44444449999999996,1e-07,-0.03035114962125872,-0.06270190850971025,-0.2284385186069606,0.057222287952976215,-0.047716297313667305,-23.216684859458,-1.2427766625397743,-1.8352422043718142
0.44444449999999996,0.22222229999999998,-0.010812041145365346,-0.04916990215121638,-0.20216154958170252,0.061881150452266644,-0.1382871779851279,-20.175516972090385,0.1354599535995483,-5.318737614812614
0.44444449999999996,0.44444449999999996,-0.022268152419419485,-0.044396481592184185,0.008471533101971252,-0.049591008327543394,-0.3052024693730737,-0.7039307028892049,-5.17028004362109,-11.738556514348991
0.44444449999999996,0.6666666999999998,-0.009976753934029154,-0.0522717917067544,-0.03404078125649037,0.014490880253526031,0.004629647475327454,-3.2630238659815953,0.47018086555811184,0.17806336443566856
0.44444449999999996,0.8888888999999999,0.003515023636288731,-0.04257424941832408,-0.11576625362706913,0.04011787973356434,-0.23879873526364903,-11.39899886890108,0.5920883126861092,-9.18456674090958
0.44444449999999996,1.1111111,-0.01188012423871938,-0.038631305252394464,0.07518840866031083,-0.013864530110470088,-0.29887978730715714,7.80539006891976,0.9551640096289189,-11.495376434890662
0.44444449999999996,1.3333332999999998,-0.0010384241359747332,-0.04589249134684379,0.0502700325147761,-0.01577081240247683,-0.10470096507918528,5.004262504838797,-0.07580248879604257,-4.026960195353272
0.44444449999999996,1.5555554999999999,0.022592081855910974,-0.04092749990256232,-0.032411697599223105,0.035204446046495745,-0.3890220998356092,-2.40113887750268,2.800102941398767,-14.962388455215738
0.44444449999999996,1.7777777,0.018630081955143703,-0.05232000228320985,0.219451828256925,-0.12257688336096612,-0.3043985188540112,20.074589367981876,-6.235311525702046,-11.707635340538893
0.44444449999999996,1.9999999,0.05375000526107434,-0.0837801561775841,0.32699891094476685,-0.13254298277782142,-0.1455155459172175,31.564397374881384,-3.784979065317728,-5.596751766046823
0.6666666999999998,1e-07,-0.07158665161367153,-0.10177233551003445,-0.1529449908044042,0.03974536028550156,-0.047644244212193376,-15.496855243819098,-0.6745205445955773,-1.8324709312382048
0.6666666999999998,0.22222229999999998,-0.04213226587938808,-0.0937390645764249,-0.09433949578085746,0.03245591961152736,-0.11753483239742671,-9.297002186527383,0.4564913051945265,-4.520570476824111
0.6666666999999998,0.44444449999999996,-0.029324590371650843,-0.09107780335533829,-0.05782303876612421,-0.0060111661837410554,-0.19723408014793906,-6.55235039793919,-2.566821737755833,-7.585926159536109
0.6666666999999998,0.6666666999999998,-0.017783807415840524,-0.0933518381035319,-0.031910476384854204,0.0003499409260673764,-0.16998538595989088,-3.4951092425312056,-1.013538680152621,-6.537899459995799
0.6666666999999998,0.8888888999999999,-0.00783302616780722,-0.09345889077637572,-0.005093639118010319,-0.004245175784590716,-0.2159405795334401,-0.6996914124601671,-0.6344250021971224,-8.305406905132317
0.6666666999999998,1.1111111,-0.002251782168460066,-0.09683107399303531,0.02403198333910045,-0.027282422567888143,-0.23090466453476688,1.7414567657949456,-2.2058052270503303,-8.880948635952569
0.6666666999999998,1.3333332999999998,0.01040553191932247,-0.1050893465941642,0.052239424418793666,-0.04004750081647768,-0.20650644759045408,4.420348810313223,-2.678645438553824,-7.942555676555934
0.6666666999999998,1.5555554999999999,0.03023766172747994,-0.11393094195589788,0.08095585314325669,-0.05338241321092786,-0.23002606419313898,7.136387821975648,-3.1973249745000585,-8.847156315120728
0.6666666999999998,1.7777777,0.05497621930384712,-0.13150176557297721,0.11790430231183531,-0.11563569264989697,-0.15057377086648063,9.14435104580947,-8.820263951246844,-5.791298879480022
0.6666666999999998,1.9999999,0.10377584358313706,-0.1588415633199403,0.14922517478875752,-0.1270092649227971,-0.061434059864606615,12.211252232078946,-9.037550822656032,-2.362848456331024
0.8888888999999999,1e-07,-0.09904421199566392,-0.14872258315626688,-0.09391231055763273,0.025441522067776386,-0.03554172008727024,-9.481302630472506,-0.3002385823641131,-1.3669892341257794
0.8888888999999999,0.22222229999999998,-0.06244673571708273,-0.14354225417768188,-0.07354734719456749,0.02104561644696767,-0.08457400951342108,-7.388314534118377,-0.11193271553875522,-3.252846519746966
0.8888888999999999,0.44444449999999996,-0.03936868432203239,-0.14164220116401952,-0.04159621146364642,0.0010749591721911033,-0.14768057208433874,-4.535574034284508,-1.2531762930662582,-5.680022003243799
0.8888888999999999,0.6666666999999998,-0.023275211285700193,-0.14351242547938933,-0.019756553223597557,-0.016519658106304326,-0.17174829365362212,-2.7156539181855788,-2.4666619860861085,-6.605703602062392
0.8888888999999999,0.8888888999999999,-0.00955563028855396,-0.1476854424416001,0.0003718025439095637,-0.02595909048047569,-0.18230152173397168,-0.8149367692563892,-2.840390078824483,-7.011596989768139
0.8888888999999999,1.1111111,0.0040573009920915025,-0.15503363868402503,0.027592711597917777,-0.03998867826071932,-0.18855435340151744,1.713858035132086,-3.4847104155323088,-7.252090515442977
0.8888888999999999,1.3333332999999998,0.021401295546025507,-0.1661606626289501,0.048598081061965,-0.053529435320026866,-0.1879005792561826,3.5757418094458275,-4.280220989168959,-7.226945356007024
0.8888888999999999,1.5555554999999999,0.045285425968591204,-0.18116607942017987,0.06802204124555411,-0.08383055928218458,-0.15726657593221802,4.7113047759229385,-6.969664495441551,-6.048714458931466
0.8888888999999999,1.7777777,0.0800867343109817,-0.20206028142679414,0.09425306422984238,-0.11174233864828276,-0.08772231080840509,6.6736662236656645,-9.172133997728565,-3.373935031092505
0.8888888999999999,1.9999999,0.13153577865947927,-0.22729550973369597,0.09694357252376364,-0.11322498418925685,-0.03904371240826652,6.920448051317208,-9.246364003530521,-1.5016812464717877
1.1111111,1e-07,-0.11635737267989821,-0.1977177052223841,-0.06383275268043717,0.0154841561514641,-0.026792367091914317,-6.504121520329445,-0.40282084095242254,-1.0304756573813199
1.1111111,0.22222229999999998,-0.07659019221946244,-0.19451847648973994,-0.05399720056759009,0.012868741897426813,-0.0645308454701596,-5.50951406575407,-0.36598002998355994,-2.4819555950061347
1.1111111,0.44444449999999996,-0.04793499053583425,-0.19357399674390485,-0.03336553623831507,-0.001317446942767979,-0.1217816568040516,-3.709974760565447,-1.244737122446453,-4.683909877078904
1.1111111,0.6666666999999998,-0.02699101438355221,-0.196211680678467,-0.013873995111918029,-0.024465764647001773,-0.15525485978707387,-2.3311785171448967,-3.145930019843632,-5.9713407610413025
1.1111111,0.8888888999999999,-0.008672592913215326,-0.20236586124616318,0.006101298619992097,-0.03685593862111768,-0.158014015410957,-0.5445585677300223,-3.848961432430777,-6.077462131190655
1.1111111,1.1111111,0.010239897288607398,-0.21201536250867,0.027691599419646135,-0.0494580481284865,-0.1598273379033913,1.4125478001209002,-4.522040472812377,-6.147205303976588
1.1111111,1.3333332999999998,0.03215993168823143,-0.22541195213550294,0.046963670391383834,-0.06450755058100684,-0.15839139473162253,3.034220353525473,-5.540488952043033,-6.091976720447024
1.1111111,1.5555554999999999,0.060262468050104046,-0.24305376014388455,0.0630620278763727,-0.09358897355741096,-0.11523996387589197,3.8445423966098353,-8.205534636758195,-4.432306302918921
1.1111111,1.7777777,0.09878450609480213,-0.2649353238934339,0.07483311934592365,-0.1069719987929257,-0.05902844560369008,4.696870297587461,-9.288138790016342,-2.270324830911158
1.1111111,1.9999999,0.14879671784140586,-0.2888466695489909,0.06876299743978878,-0.10619126831560155,-0.028600090827111443,4.055562301660252,-9.40245814106208,-1.1000034933504388
1.3333332999999998,1e-07,-0.12586393665665954,-0.24574598456204516,-0.03317274105143446,0.0072557166055347965,-0.020055128754319505,-3.4061567109641753,-0.29627535273577843,-0.7713511059353774
1.3333332999999998,0.22222229999999998,-0.0856552979333209,-0.24422903202648463,-0.03649101508275771,0.006073682219389394,-0.05383036465418109,-3.8097703754880228,-0.5355628907074651,-2.070398640545436
1.3333332999999998,0.44444449999999996,-0.05393059168018848,-0.24437351608614408,-0.024293768107420767,-0.003997566893575633,-0.10231620955457366,-2.801432766537757,-1.2401865193188977,-3.935238829022042
1.3333332999999998,0.6666666999999998,-0.029052680456458896,-0.2479968922329098,-0.009097105758248918,-0.03114817826194705,-0.13488378794911535,-2.026544971080567,-3.7227813175188627,-5.187837998042915
1.3333332999999998,0.8888888999999999,-0.006640420561407322,-0.2553512228366462,0.00994005039787211,-0.04223644348462409,-0.13495920557989602,-0.30009699423243147,-4.313673446732136,-5.190738676149843
1.3333332999999998,1.1111111,0.0162615975242659,-0.2662631820761663,0.026973616928651495,-0.055087094634515686,-0.13346551017768793,1.1480756635490983,-5.164286764386841,-5.133288852987968
1.3333332999999998,1.3333332999999998,0.04194064560413178,-0.28080350457193937,0.04441301187049629,-0.06821131819878176,-0.1297340970842374,2.6318259792155976,-6.031584026113411,-4.98977296477834
1.3333332999999998,1.5555554999999999,0.07308088692355369,-0.2992574005144481,0.05536119572271282,-0.09710603591297914,-0.08662865665689112,2.8823499943756787,-8.84589859298524,-3.3318714098804234
1.3333332999999998,1.7777777,0.11260608872128214,-0.3209842232201174,0.05837312206936539,-0.10233182967126744,-0.043455817875497973,3.0410519964818814,-9.320867368182208,-1.6713776105960934
1.3333332999999998,1.9999999,0.1596447442301915,-0.3437839676922736,0.04130358388130452,-0.10126071423563866,-0.01840794800596348,1.2005900671003231,-9.765894403433764,-0.7079980002293619
1.5555554999999999,1e-07,-0.12927019321846814,-0.2905669630796428,0.00013153769712351184,9.376401448341846e-05,-0.005899842898666828,0.017545813348221313,0.014640145452797335,-0.22691703456408577
1.5555554999999999,0.22222229999999998,-0.090370858919561,-0.29042643321993455,-0.010106609901339998,-0.0005353558275223286,-0.026849985391681812,-1.1282655658897451,-0.39201525251917824,-1.0326917458338958
1.5555554999999999,0.44444449999999996,-0.05714047174743908,-0.29169401383749016,-0.006006713165040124,-0.008968611639419147,-0.06112858797848021,-0.9557468853698353,-1.1835852295529177,-2.3510995376338846
1.5555554999999999,0.6666666999999998,-0.029455314279521506,-0.29616878447464945,0.003869420829619573,-0.03316996350358785,-0.08864633503355523,-0.6683042001600966,-3.517487610406834,-3.409474424367481
1.5555554999999999,0.8888888999999999,-0.004024643793274834,-0.30423539310992853,0.012986963438486309,-0.04489064199063829,-0.08903168784201884,-0.05277243502254635,-4.504895929570593,-3.4242956862314524
1.5555554999999999,1.1111111,0.02174985495324056,-0.31581650338134803,0.02270741035208621,-0.058264179626042495,-0.08558525759330946,0.5745226883817001,-5.6540611560897425,-3.2917406766657646
1.5555554999999999,1.3333332999999998,0.05008434966920085,-0.3308641899305727,0.030345052612904818,-0.07127224301487131,-0.07837577237706835,0.984986781147645,-6.831728267142806,-3.014452783733407
1.5555554999999999,1.5555554999999999,0.08316976695857797,-0.34938246271600826,0.03690644415696578,-0.09538367783117187,-0.038401662812804126,0.9111363524851046,-9.265026877371623,-1.4769870312616549
1.5555554999999999,1.7777777,0.12267140397147244,-0.3705385526646228,0.036318816104718175,-0.0978193361588407,-0.012194898191517258,0.7662654128643549,-9.552053992024746,-0.4690345458275994
1.5555554999999999,1.9999999,0.16659283635915423,-0.3925018201279939,0.02167987994139161,-0.09678526501611968,-0.0004497808241948058,-0.8083186333455801,-9.921022091615644,-0.01729926246901542
1.7777777,1e-07,-0.12949777218151268,-0.33120625378233776,0.0016071680736170631,-0.002447695271944396,-0.0028907844639091823,0.09591862549821212,-0.21599393954497742,-0.1111840178426658
1.7777777,0.22222229999999998,-0.09197537873502842,-0.33159776677729474,-0.001733494532352747,-0.0017605470781493673,-0.006132433087361617,-0.24853391821949664,-0.25061488328078335,-0.23586281105237158
1.7777777,0.44444449999999996,-0.05794563760540293,-0.3332409800389808,0.00016631846985337804,-0.010665822706122407,-0.026242783720925075,-0.3333437738443605,-1.1665854027655413,-1.0093378354201878
1.7777777,0.6666666999999998,-0.028423115372320472,-0.33793507338347895,0.007356130039942379,-0.03483484742853575,-0.04407755320978826,-0.3400356251228918,-3.5854954303903535,-1.695290508068774
1.7777777,0.8888888999999999,-0.001084979928786933,-0.34638809631868195,0.013906289697085798,-0.04780025337088377,-0.04233472243214879,-0.04766882573399158,-4.794325984808574,-1.6282585550826254
1.7777777,1.1111111,0.026569981754286414,-0.35854632808079184,0.02042684470213451,-0.06055472442815035,-0.04093206736752232,0.24839861249334405,-5.980952859067026,-1.5743102833662408
1.7777777,1.3333332999999998,0.05655169989739535,-0.3742788915965232,0.026104081492042647,-0.07446480927815897,-0.038824077783766814,0.41369656138406063,-7.322371959400594,-1.4932337609141062
1.7777777,1.5555554999999999,0.09089497537156666,-0.3933266438471186,0.03127585348019777,-0.09545777564706134,-0.013823518204702623,0.2899473391296785,-9.458793362967244,-0.5316737771039515
1.7777777,1.7777777,0.13037812022833042,-0.41458430126183016,0.03101156785114435,-0.09844843733479239,0.0010323829893401858,0.16231171985786869,-9.796150217521866,0.03970703805154568
1.7777777,1.9999999,0.17244183694248022,-0.4364362660591336,0.027361421784497603,-0.09628773914719953,-0.0006038530579639768,-0.1675714241387236,-9.67904534196156,-0.023225117613995257
1.9999999,1e-07,-0.12944555485616438,-0.36936569150277765,-0.0012566603206566776,-0.0010562717693966405,-0.005242559207823554,-0.17291668697534834,-0.15750218303226854,-0.20163689260859885
1.9999999,0.22222229999999998,-0.09236178021437683,-0.369290985701999,-0.0023407117844822544,0.0016152948741290024,-0.00283243154837996,-0.20396959585094326,0.10033860865767161,-0.10893967493769137
1.9999999,0.44444449999999996,-0.057714369259935484,-0.36952589718962275,0.000501132510560886,-0.0009568264685108439,-0.006214490454938798,0.023525776923917198,-0.08862491377403567,-0.23901886365149194
1.9999999,0.6666666999999998,-0.026785899570486486,-0.37278214163186457,0.007446912912958362,-0.029687405753417932,-0.016129530989845396,-0.16036360583153877,-3.0168496570912895,-0.6203665765325167
1.9999999,0.8888888999999999,0.002056028969146372,-0.3809376399663132,0.014452849165315546,-0.049769087534121854,-0.01680147199572937,-0.05251396647483893,-4.992662943354639,-0.6462104613742057
1.9999999,1.1111111,0.03113125875904405,-0.39400070047018626,0.020769725500903814,-0.06604822578003322,-0.017173978478777253,0.10497338097734243,-6.57333056371012,-0.6605376337991246
1.9999999,1.3333332999999998,0.06240975142375558,-0.4116652626249505,0.02667170364454435,-0.08654716616582357,-0.01587608565666332,0.07775316426342455,-8.63139066730332,-0.6106186791024375
1.9999999,1.5555554999999999,0.09772990827483266,-0.4331606652656459,0.031544520742115195,-0.10705644226584804,-0.0017150863617062815,-0.06290241072960341,-10.724514949803668,-0.06596486006562066
1.9999999,1.7777777,0.1373601965759447,-0.45608642693985174,0.03222794965220344,-0.10240647238133227,-0.0003289895140779534,0.16549537778063605,-10.190998624799041,-0.012653442849155185
1.9999999,1.9999999,0.1788176298675164,-0.47846525868419004,0.029785493600165334,-0.0989782789490729,-0.004344072963141904,0.010110979719061497,-9.894794600991572,-0.1670797293516122
