x,y,u_x,u_y,strain_xx,strain_yy,strain_xy,stress_xx,stress_yy,stress_xy
1e-07,1e-07,0.0,0.0,-0.6062141359014358,-0.06584208483825163,-0.7969615998572273,-68.7875561926276,-27.220475341613444,-30.65236922527797
1e-07,0.22222229999999998,-0.06520304820752491,0.0026575777898512707,-0.24733096885780603,0.085715899120021,0.4990471524238292,-24.35342847492305,1.2655613695251855,19.19412124707035
1e-07,0.44444449999999996,0.0017681667013594686,-0.003146742698236302,-0.17329437520072036,-0.06836694013764001,-0.0551175379538438,-21.297193103517838,-13.225851944819354,-2.119905305917069
1e-07,0.6666666999999998,-0.011910628479222134,-0.0012671300017852414,-0.046336245781332636,0.05312955430000838,-0.09490074719496171,-3.34037137267364,4.310844018198745,-3.650028738267757
1e-07,0.8888888999999999,0.008744874561433625,-0.001544816255651594,-0.0320161470815123,-0.019622752348370354,-0.04168211824518271,-4.165161844617956,-3.2118237882224228,-1.6031583940454883
1e-07,1.1111111,-0.008745124355341463,-0.0015330194676938106,0.03198662032030686,0.01955696553580374,-0.041598833324504064,4.159748349565713,3.203621058450088,-1.5999551278655413
1e-07,1.3333332999999998,0.011906176548323967,-0.001282136862723287,0.046288047867985134,-0.053189314151863086,-0.09515268309295208,3.3331047936732094,-4.318999977084346,-3.6597185804981565
1e-07,1.5555554999999999,-0.0017731341218325892,-0.00314324407959572,0.1732227714841822,0.06832170311681675,-0.05517234917050037,21.287833232882114,13.218520281546306,-2.122013429634629
1e-07,1.7777777,0.06514928212505064,0.002581222318581938,0.2471740296299828,-0.08649282106564518,0.49799656917222657,24.310569594537274,-1.3561112282033356,19.153714198931787
1e-07,1.9999999,8.064248967430759e-18,1.2748667549265367e-17,0.6057318788796311,0.06665495494635684,-0.7966932359378801,68.76135883115802,27.293903143983087,-30.64204753607231
0.22222229999999998,1e-07,-0.10661564917118134,-0.016072893941696267,-0.041989769877172706,0.01146163632877003,-0.1279886280983276,-4.236404283356216,-0.12475765212986767,-4.922639542243367
0.22222229999999998,0.22222229999999998,-0.0804692908722066,-0.029766772444973215,0.26215964681831944,-0.13723793534549736,0.15368288759600546,24.284424858754978,-6.438466076923241,5.91088029215406
0.22222229999999998,0.44444449999999996,-0.03515189871369257,-0.02595099159227779,-0.09137890158863746,0.04957182635687964,0.034918346460594635,-8.407401503469607,2.4349621846470764,1.343013325407488
0.22222229999999998,0.6666666999999998,-0.018806761140945566,-0.022813551344588137,0.02052060963679738,-0.009226112527505537,-0.09322308949845289,1.9508544921478792,-0.3373549051061871,-3.5855034422481866
0.22222229999999998,0.8888888999999999,-0.0015830298469942535,-0.020817955540107125,-0.06287148659841355,0.011246933656490696,-0.03150205800494984,-6.538176538622677,-0.836759595937732,-1.211617615574994
0.22222229999999998,1.1111111,0.001576881271736206,-0.0208220503336615,0.06285668124715053,-0.011248242630978976,-0.03145532348253821,6.5365064239403114,0.8361276640841954,-1.2098201339437762
0.22222229999999998,1.3333332999999998,0.018794930298321362,-0.02281880837381609,-0.02051275707199416,0.009243849355057149,-0.09337268253571573,-1.9494068423601094,0.3395628827976839,-3.591257020604451
0.22222229999999998,1.5555554999999999,0.03513461637518733,-0.025972336027863238,0.09136236532404841,-0.04960472085014138,0.03501078312321896,8.404499897692961,-2.439122115706251,1.3465685816622692
0.22222229999999998,1.7777777,0.08041275061833042,-0.02979186728788913,-0.26194136260271705,0.13747469536924456,0.1533704634950847,-24.25263230680702,6.471679844882354,5.89886398058018
0.22222229999999998,1.9999999,0.10653896513508121,-0.016123230598291245,0.042062711765316896,-0.011593556703091326,-0.1274082436339474,4.240070852130715,0.11266558533008553,-4.900317062844131
0.44444449999999996,1e-07,-0.11515122367353009,-0.05928007790563476,-0.11051973594455405,0.011924899302700992,-0.046408861112447956,-11.751897379532279,-2.3330792835895853,-1.7849561966326142
0.44444449999999996,0.22222229999999998,-0.08102760180387421,-0.05757027814463289,-0.08046506356143619,0.0038913744948721263,0.03512762757996268,-8.71402760582138,-2.2250708322591977,1.3510625992293364
0.44444449999999996,0.44444449999999996,-0.048558669197522615,-0.05526746841959043,-0.06521089612982049,0.01391478010088763,0.0183980538698175,-6.707303527423539,-0.6207130481382989,0.7076174565314425
0.44444449999999996,0.6666666999999998,-0.024571083481440603,-0.05091810374518181,-0.050053584556273976,0.013007129883607704,-0.06938051972348727,-5.071587427603477,-0.2207632399202731,-2.6684815278264344
0.44444449999999996,0.8888888999999999,-0.006682188697706833,-0.04944003830129214,-0.009943423877609565,0.006383485692720363,-0.05262157612208562,-0.882239359317962,0.3736767614766496,-2.0239067739263703
0.44444449999999996,1.1111111,0.0066720352612108435,-0.04944127043142264,0.009921493090350873,-0.00639395014495904,-0.052637149495082206,0.8794844007541938,-0.3755496942696463,-2.024505749810853
0.44444449999999996,1.3333332999999998,0.024556836642242588,-0.05092213602207176,0.05002998293895255,-0.013035967423564526,-0.06936628481011932,5.068043155151998,0.21681620418914446,-2.6679340311584347
0.44444449999999996,1.5555554999999999,0.048535439369797415,-0.05527289266138907,0.06517461906363846,-0.013912555300307454,0.01831398076853968,6.703390381708376,0.6197615844817671,0.7043838757130659
0.44444449999999996,1.7777777,0.08097961099933047,-0.05757856756111787,0.08046399855478349,-0.003920927490335612,0.03500888113711634,8.712936297547563,2.2217881402307107,1.3464954283506279
0.44444449999999996,1.9999999,0.11508425947870879,-0.05929231505427546,0.11048719395684171,-0.011927480940630685,-0.046453055651627974,11.748236227983792,2.3317227743320688,-1.7866559866010747
0.6666666999999998,1e-07,-0.12412495773427593,-0.09114656178821447,0.012374558845953211,0.004667615384084613,0.011732722337163876,1.5137190616679788,0.9208772569088575,0.451258551429382
0.6666666999999998,0.22222229999999998,-0.09075742029707096,-0.09022520856558104,-0.010408169817085531,0.011459847535709526,0.0013036881410265291,-0.7659577534475419,0.9161974275366761,0.05014185157794547
0.6666666999999998,0.44444449999999996,-0.05958126090885518,-0.08680166589016446,-0.023633991120501113,0.01308120567145872,-0.02642707389551499,-2.16589334275423,0.6583525643196035,-1.0164259190582736
0.6666666999999998,0.6666666999999998,-0.03235936229694189,-0.08335119061238604,-0.01184503993521633,0.013202878034845137,-0.06712421911573728,-0.8663930246992068,1.0603698960747567,-2.5817007352206653
0.6666666999999998,0.8888888999999999,-0.010007846612253958,-0.08164612981073008,-0.01418992826083646,0.005914400283579676,-0.0640930266869332,-1.3643525467870943,0.18213426432183874,-2.4651164110358943
0.6666666999999998,1.1111111,0.009993052825327574,-0.0816462512696822,0.014172032331744053,-0.005913066266202464,-0.06409996427435924,1.3624299397673965,-0.1825776446900245,-2.4653832413215078
0.6666666999999998,1.3333332999999998,0.03233996375525577,-0.0833501982076257,0.011831565505968679,-0.013208434672022875,-0.06711211418197911,0.8647291323474535,-1.0614247274980537,-2.58123516084535
0.6666666999999998,1.5555554999999999,0.059553543609499035,-0.08680003167567184,0.023632328889495298,-0.013076021714602232,-0.026467593983413862,2.1658815796829196,-0.657837697555346,-1.0179843839774518
0.6666666999999998,1.7777777,0.09071329772091569,-0.09022271560737849,0.010432012774749918,-0.011441591341364094,0.0012870624284354766,0.7691797112462445,-0.9134052207625293,0.0495024010936671
0.6666666999999998,1.9999999,0.12406926087548018,-0.09114717009471551,-0.012280145160010046,-0.004674019613592711,0.011753209301400603,-1.5035550597898824,-0.9184684792962339,0.4520465115923353
0.8888888999999999,1e-07,-0.1315128724255958,-0.12541155609952764,-0.04481444149154186,0.012808097887576668,-0.009469351936089377,-4.502418914864707,-0.0699158857017448,-0.36420584369574327
0.8888888999999999,0.22222229999999998,-0.09764311387389105,-0.12273888549086784,-0.03403270281077257,0.010212235318866118,0.005766710867264136,-3.403190353309096,0.00026642589386489945,0.22179657181784684
0.8888888999999999,0.44444449999999996,-0.06633849453523374,-0.12047471587877893,-0.03371241072981052,0.010779803348188302,-0.008284533989789096,-3.349282387401544,0.07319561859836611,-0.3186359226841961
0.8888888999999999,0.6666666999999998,-0.03765899803400905,-0.11781643715901724,-0.027710372779380207,0.007258598678797259,-0.04219989360283697,-2.805801447883626,-0.11588056648535594,-1.6230728308783435
0.8888888999999999,0.8888888999999999,-0.011822576673639845,-0.1166088859780647,-0.007071930906934365,0.0062252701179970095,-0.04136448490381628,-0.5719065792895891,0.45095503801282316,-1.5909417270698538
0.8888888999999999,1.1111111,0.011803310812851828,-0.11660810456255952,0.007049509231004432,-0.006215978217734127,-0.0413742495571378,0.5697489852400222,-0.45067312620140276,-1.5913172906591464
0.8888888999999999,1.3333332999999998,0.03763604775341459,-0.11781373421826778,0.027691572265555197,-0.007253879404584001,-0.04220406359328731,2.8038910378219795,0.11577937088820484,-1.6232332151264364
0.8888888999999999,1.5555554999999999,0.06630842845601854,-0.1204703152936424,0.03369962877896146,-0.010774549976430823,-0.008322611799858229,3.3480509654980444,-0.07303970799367047,-0.32010045384070007
0.8888888999999999,1.7777777,0.09760258936723662,-0.12273370057585425,0.034048863010194004,-0.010213333112476975,0.0057418498048139805,3.404930008401202,0.00014569127266311896,0.22084037710823332
0.8888888999999999,1.9999999,0.1314651918619641,-0.12540792700801603,0.04484135483135211,-0.012817038936073031,-0.009484593212671486,4.505081664893432,0.06982060586072525,-0.3647920466412114
1.1111111,1e-07,-0.13687436409984674,-0.15857567736775868,-0.01897279469062536,0.004029287220454244,-0.011338897491067607,-1.9520888488449557,-0.1826979326080626,-0.43611144196413787
1.1111111,0.22222229999999998,-0.1028570383989395,-0.15757210465885227,-0.018100666310943713,0.007756844760587248,-0.008603635822104043,-1.7333640530513692,0.25567526014327857,-0.33090907008091636
1.1111111,0.44444449999999996,-0.07103342014066356,-0.15592013060793916,-0.013267624344333786,0.006434348324359642,-0.024752743212582286,-1.2458593238489974,0.26967703528126513,-0.9520285850993212
1.1111111,0.6666666999999998,-0.040977305602057895,-0.15437253043491508,-0.009062644202049826,0.005247784354340787,-0.04544217566933733,-0.8228910874447821,0.27791110920064366,-1.7477759872822054
1.1111111,0.8888888999999999,-0.01331720693913744,-0.15357540307035633,-0.004303482792410845,0.0033439347690201655,-0.045413160984535704,-0.36267058919832873,0.22559230014251141,-1.746660037866757
1.1111111,1.1111111,0.013293942739652197,-0.15357430529195346,0.004290807190088918,-0.0033328695579195114,-0.045425356548596654,0.3616424530453926,-0.22479421987832968,-1.7471290980229472
1.1111111,1.3333332999999998,0.04095105803232527,-0.15436888273472688,0.009053245426793612,-0.005241244404433178,-0.04544843648951087,0.8220738577432634,-0.27750228312033515,-1.74801678805811
1.1111111,1.5555554999999999,0.07100259996532544,-0.15591499625152894,0.013266458022566985,-0.006427456917725266,-0.02478869668738925,1.245958345851584,-0.2689581880170522,-0.9534114110534333
1.1111111,1.7777777,0.10281927771572812,-0.15756593869168,0.018109983276137352,-0.0077546218427600256,-0.008612542619018802,1.7344611783856512,-0.25512383076031164,-0.33125163919303263
1.1111111,1.9999999,0.1368347208435025,-0.15857029158955116,0.018993101902853856,-0.004029391024218817,-0.011348995403408457,1.9543169885261826,0.18335599413597214,-0.4364998232080183
1.3333332999999998,1e-07,-0.14255654683627025,-0.19472948799770295,-0.025996762642983756,0.007645506050388579,-0.0017279722004270035,-2.604737453611796,-0.016870631044683032,-0.06646046924719999
1.3333332999999998,0.22222229999999998,-0.10717727826298279,-0.19315890226428564,-0.019445267072269,0.0050299159707177825,-0.007067643888814787,-1.9710211297861138,-0.08831474186409524,-0.2718324572621002
1.3333332999999998,0.44444449999999996,-0.07466302546077874,-0.19218755155814468,-0.015592047742088937,0.004528788339093299,-0.017995331294533925,-1.564111125314398,-0.016354503684988343,-0.6921281267128495
1.3333332999999998,0.6666666999999998,-0.04368699647600744,-0.19114599448217412,-0.012184868885310719,0.0020028088087391265,-0.03784862710445871,-1.2729699167790163,-0.18161009415978618,-1.4557164270945624
1.3333332999999998,0.8888888999999999,-0.014140992446811407,-0.19072139322133883,-0.0032195088990092714,0.0026042298842880226,-0.03747889701879878,-0.26793845425526214,0.18004145215222306,-1.4414960391845837
1.3333332999999998,1.1111111,0.014114589433470234,-0.19072021236469897,0.0032048108744551166,-0.002593642760385939,-0.037485236153932525,0.2666723127845436,-0.17936258220323453,-1.441739852074317
1.3333332999999998,1.3333332999999998,0.0436585344459767,-0.19114276900671978,0.01217382171524243,-0.001993830443723659,-0.037862365010693885,1.2720519321016874,0.18223253525814223,-1.4562448081036068
1.3333332999999998,1.5555554999999999,0.07463136233636508,-0.192182763420989,0.015589168068534161,-0.004524276824497201,-0.018016725313576024,1.5639434089214315,0.016755340226707723,-0.6929509735990778
1.3333332999999998,1.7777777,0.10714182855073023,-0.1931532435060152,0.019454880377514167,-0.005031825411516555,-0.00706387387633959,1.9720145883581677,0.08842183535581655,-0.271687456782289
1.3333332999999998,1.9999999,0.14252029853535206,-0.19472437754974153,0.026014544086825755,-0.00764812693683123,-0.0017326407965437575,2.6066050555798332,0.01716882299082078,-0.06664003063630389
1.5555554999999999,1e-07,-0.14634445054848763,-0.2318079291066837,-0.014961607055662154,0.0034655550906289093,-0.011916000698965203,-1.529883574557525,-0.11240956330436665,-0.4583077191909689
1.5555554999999999,0.22222229999999998,-0.1098043263837516,-0.23100402264010544,-0.010531141862777812,0.0036423717385577685,-0.013462421481688688,-1.0371901473857728,0.05308012964001547,-0.517785441603415
1.5555554999999999,0.44444449999999996,-0.07639781488531974,-0.23027949744135576,-0.006927858323076049,0.0031468320667885304,-0.02315613255068206,-0.6575613959384066,0.1174147878973253,-0.89062048271854
1.5555554999999999,0.6666666999999998,-0.04465790520673525,-0.22958569304128598,-0.004741197416636072,0.001895834300509104,-0.03816350413576515,-0.45851067323992134,0.05203022807893032,-1.4678270821448134
1.5555554999999999,0.8888888999999999,-0.014589274065966822,-0.22922940748687784,-0.0015875483373986394,0.0018063398790733771,-0.03611722957991713,-0.11490619490952197,0.1461621294344833,-1.389124214612197
1.5555554999999999,1.1111111,0.014561122182685895,-0.22922858637245258,0.0015812080328387157,-0.0017983391435939214,-0.03612222454722578,0.1144732186550079,-0.14549194876286753,-1.3893163287394525
1.5555554999999999,1.3333332999999998,0.0446281571827721,-0.22958313675417857,0.004737050241347093,-0.0018895353525504623,-0.038170305671782694,0.4582625973167007,-0.05147475606002691,-1.4680886796839487
1.5555554999999999,1.5555554999999999,0.07636601873675036,-0.23027593772178004,0.006926299285993674,-0.0031423707744287492,-0.023174845353628924,0.6575371487544007,-0.11697593281655953,-0.891340205908807
1.5555554999999999,1.7777777,0.10976979321110844,-0.2309996652261272,0.010535625833060492,-0.00364224427068503,-0.01345330442171065,1.0376870936104428,-0.05291829898537094,-0.5174347854504076
1.5555554999999999,1.9999999,0.14631065466089038,-0.23180365712819487,0.014966566639636188,-0.0034648371877400996,-0.011920716484905823,1.530452250913643,0.11265195650008308,-0.45848909557330286
1.7777777,1e-07,-0.1499617290043406,-0.2702008162153923,-0.014976562385981915,0.004344667624040139,-0.006334412605773286,-1.5025452855791168,-0.01629682326971571,-0.2436312540681966
1.7777777,0.22222229999999998,-0.1118235712733767,-0.26945245323908457,-0.002489087829809254,0.0014726045427816028,-0.01850299181391575,-0.22497873263461016,0.07976683448775465,-0.7116535313044334
1.7777777,0.44444449999999996,-0.07785868180968669,-0.2687122210742388,-0.00311408601029835,0.0039352170777057945,-0.024776099547336325,-0.21247482274577667,0.3297792609468471,-0.952926905666785
1.7777777,0.6666666999999998,-0.0457062888396838,-0.2678131502204339,-0.0015469705978776982,0.0018656272365345046,-0.040502880790911314,-0.10849257438652432,0.15401495133746346,-1.5578031073427563
1.7777777,0.8888888999999999,-0.014880640982205649,-0.26738810870006424,-0.0008506146604897929,0.0023591015058620083,-0.0349673400547216,-0.01570156139903097,0.2311996821664921,-1.3448976944123676
1.7777777,1.1111111,0.014851109343972666,-0.2673875857738211,0.0008476270963016467,-0.002351638420658151,-0.03497202080341083,0.015619293418043384,-0.23047805404040034,-1.3450777232081146
1.7777777,1.3333332999999998,0.04567552612186983,-0.2678112163821346,0.0015439098975253637,-0.001860503197442934,-0.04051470346185967,0.10832515805412753,-0.1535527723280592,-1.5582578254561361
1.7777777,1.5555554999999999,0.0778265484511461,-0.26870966181738754,0.0031137373960149098,-0.003932835353899613,-0.024791814850759458,0.21251503185110943,-0.3295290258346323,-0.953531340413833
1.7777777,1.7777777,0.11178966910652993,-0.26944926045167755,0.0024860032735757784,-0.001466562993465001,-0.018476448203819454,0.22483894236663124,-0.07920461663649275,-0.7106326232238168
1.7777777,1.9999999,0.14992918556150261,-0.2701973193428067,0.014983214119835195,-0.004344774498067824,-0.0063339492272895806,1.5032727220236328,0.016504366800302348,-0.24361343181883566
1.9999999,1e-07,-0.15188942659026167,-0.3125149637967483,-0.0075001960995909715,0.00403828693090948,-0.014945031890569034,-0.6910670351997941,0.19650858253100972,-0.574808918868039
1.9999999,0.22222229999999998,-0.1126201923077203,-0.3105221799944956,-0.006278381278025819,0.016281719049231237,-0.022037772508832123,-0.15317203991828493,1.5822202929476346,-0.8476066349550804
1.9999999,0.44444449999999996,-0.07852702443319244,-0.30812908397200195,-0.004739314628416372,0.008487134743478843,-0.02165415955642497,-0.241008154436562,0.7764110280169134,-0.8328522906317304
1.9999999,0.6666666999999998,-0.04608634678535038,-0.3056895378796358,-0.004070974762704772,0.007092971604683835,-0.03205702187318699,-0.21352563530764312,0.6452394698760912,-1.232962379737962
1.9999999,0.8888888999999999,-0.015070947071782597,-0.3047883082167995,-0.000736665125484381,0.004164855969684163,-0.027124216909046307,0.056350732463832626,0.43339081670756074,-1.043239111886397
1.9999999,1.1111111,0.015041010313638702,-0.30478747790221117,0.0007332751150734861,-0.004158894671080018,-0.02712172461697504,-0.056526734752803606,-0.4328474875338506,-1.0431432544990398
1.9999999,1.3333332999999998,0.046055378116851765,-0.30568777329515406,0.004069471104229322,-0.00709649442106527,-0.03206375438933813,0.21324426130876173,-0.6456761637139121,-1.233221322666852
1.9999999,1.5555554999999999,0.07849482725343573,-0.3081268935847931,0.004738472881492383,-0.008483448126533785,-0.02166118776350889,0.24103719159695047,-0.7760336551742919,-0.8331226062888022
1.9999999,1.7777777,0.1125861791457473,-0.3105204799390894,0.006280330620832144,-0.01629103424411496,-0.022022473956372537,0.15307915907667285,-1.5831796766884991,-0.8470182290912601
1.9999999,1.9999999,0.1518579201933413,-0.3125134070788387,0.007503774636020734,-0.004033361912861337,-0.014942972894699397,0.6916226441936628,-0.1958493980280348,-0.5747297267192062
